3 5 7 
3 2 1 1 1 112 2 7 1 122 2 121 3 118 4 121 5 131 6 119 7 119 2 4 3 1 148 2 139 5 136 2 5 1 121 2 138 3 143 4 143 6 142 2 4 4 3 141 4 139 5 158 7 148 5 4 1 160 3 168 4 154 5 172 
3 2 1 3 2 217 5 215 6 193 3 5 1 143 2 149 5 151 6 145 7 159 2 3 7 1 50 2 57 3 59 4 50 5 56 6 50 7 56 2 4 2 66 4 66 5 64 6 69 2 5 3 3 80 4 74 5 74 3 4 4 64 5 69 6 67 7 65 
3 2 1 1 2 95 2 6 1 60 2 64 3 56 4 59 6 58 7 56 2 4 6 1 76 2 64 3 64 4 76 5 72 6 72 3 7 1 82 2 83 3 81 4 87 5 86 6 77 7 76 2 4 2 2 174 6 180 5 2 1 91 2 102 
